WARNING: for repeatability, setting FPU to use double precision
============================[ Problem Statistics ]=============================
|                                                                             |
|  Number of symmetries:          35                                          |
|  Number of invertingSyms:        0                                          |
|  Number of variables:           342                                         |
|  Number of clauses:            3097                                         |
|  Parse time:                   0.00 s                                       |
|                                                                             |
============================[ Search Statistics ]==============================
| Conflicts |          ORIGINAL         |          LEARNT          | Progress |
|           |    Vars  Clauses Literals |    Limit  Clauses Lit/Cl |          |
===============================================================================
|       100 |     342     3097     6498 |     1135      100    129 |  0.001 % |
|       250 |     342     3097     6498 |     1249      250     94 |  0.001 % |
|       475 |     342     3097     6498 |     1374      475     87 |  0.001 % |
|       812 |     342     3097     6498 |     1511      812     85 |  0.001 % |
|      1318 |     342     3097     6498 |     1662     1318     86 |  0.001 % |
|      2077 |     342     3097     6498 |     1828     1221     97 |  0.001 % |
|      3216 |     342     3097     6498 |     2011     1342    123 |  0.001 % |
|      4924 |     342     3097     6498 |     2212     1976    125 |  0.001 % |
|      7486 |     342     3097     6498 |     2434     2224    132 |  0.001 % |
|     11330 |     342     3097     6498 |     2677     2175    152 |  0.001 % |
|     17096 |     342     3097     6498 |     2945     2413    152 |  0.001 % |
|     25745 |     342     3097     6498 |     3239     1813    152 |  0.001 % |
|     38719 |     342     3097     6498 |     3563     3058    147 |  0.001 % |
|     58180 |     342     3097     6498 |     3920     2197    105 |  0.001 % |
|     87372 |     342     3097     6498 |     4312     2921    100 |  0.001 % |
|    131161 |     342     3097     6498 |     4743     3798    141 |  0.001 % |
|    196845 |     342     3097     6498 |     5217     2867    100 |  0.001 % |
|    295371 |     342     3097     6498 |     5739     4383    118 |  0.001 % |
|    443160 |     342     3097     6498 |     6313     4398    143 |  0.001 % |
|    664843 |     342     3097     6498 |     6945     5793    124 |  0.001 % |
|    997368 |     342     3097     6498 |     7639     4037    136 |  0.001 % |
|   1496156 |     342     3097     6498 |     8403     7592    141 |  0.001 % |
|   2244338 |     342     3097     6498 |     9243     8185    145 |  0.001 % |
|   3366612 |     342     3097     6498 |    10168     8676     88 |  0.001 % |
|   5050023 |     342     3097     6498 |    11185     9643    138 |  0.001 % |
|   7575139 |     342     3097     6498 |    12303     7632    143 |  0.001 % |
|  11362814 |     342     3097     6498 |    13533     6550    128 |  0.001 % |
|  17044326 |     342     3097     6498 |    14887    12752    134 |  0.001 % |
|  25566595 |     342     3097     6498 |    16375     7843    137 |  0.001 % |
|  38349998 |     342     3097     6498 |    18013    11575    146 |  0.001 % |
===============================================================================
restarts              : 66083
conflicts             : 52729858       (10373 /sec)
symconflicts          : 4790461        (942 /sec)
decisions             : 87422320       (0.00 % random) (17197 /sec)
propagations          : 965297188      (189890 /sec)
sympropagations       : 21689852       (4267 /sec)
conflict literals     : 7303441571     (8.12 % deleted)
Memory used           : 101.00 MB
CPU time              : 5083.45 s

INDETERMINATE
